results_rootrelaxation/bin012_080_011.srr.sol
solution status: optimal solution found
objective value:                     17.6428571428571
_var46_                             0.178571428571428 	(obj:3)
_var669_                            0.357142857142857 	(obj:1)
_var709_                            0.142857142857143 	(obj:1)
_var737_                            0.214285714285714 	(obj:2)
_var738_                           0.0357142857142863 	(obj:3)
_var751_                            0.107142857142858 	(obj:1)
_var757_                            0.214285714285714 	(obj:2)
_var758_                                         0.25 	(obj:2)
_var772_                            0.321428571428572 	(obj:2)
_var776_                            0.250000000000001 	(obj:1)
_var779_                            0.428571428571429 	(obj:2)
_var788_                                          0.5 	(obj:2)
_var795_                            0.107142857142857 	(obj:1)
_var798_                            0.285714285714285 	(obj:1)
_var802_                            0.214285714285713 	(obj:2)
_var806_                            0.107142857142857 	(obj:2)
_var809_                                         0.25 	(obj:0)
_var819_                            0.321428571428571 	(obj:1)
_var820_                            0.214285714285715 	(obj:0)
_var821_                            0.250000000000001 	(obj:1)
_var822_                            0.464285714285714 	(obj:1)
_var825_                            0.499999999999999 	(obj:2)
_var827_                           0.0357142857142863 	(obj:3)
_var829_                            0.500000000000001 	(obj:0)
_var833_                                         0.25 	(obj:0)
_var838_                                         0.25 	(obj:3)
_var840_                            0.107142857142858 	(obj:2)
_var852_                           0.0357142857142856 	(obj:1)
_var857_                            0.178571428571428 	(obj:1)
_var858_                            0.142857142857144 	(obj:2)
_var862_                            0.142857142857143 	(obj:1)
_var866_                            0.357142857142857 	(obj:3)
_var868_                            0.214285714285714 	(obj:4)
_var874_                           0.0714285714285707 	(obj:2)
_var880_                            0.214285714285714 	(obj:2)
_var881_                            0.214285714285714 	(obj:1)
_var886_                           0.0357142857142863 	(obj:3)
_var888_                            0.178571428571428 	(obj:3)
_var891_                            0.178571428571428 	(obj:2)
_var892_                                         0.25 	(obj:1)
_var895_                            0.107142857142858 	(obj:3)
_var897_                            0.285714285714285 	(obj:2)
_var898_                            0.142857142857143 	(obj:1)
_var899_                            0.107142857142857 	(obj:2)
_var900_                            0.142857142857144 	(obj:3)
_var902_                             0.17857142857143 	(obj:1)
_var906_                            0.428571428571428 	(obj:2)
_var907_                                         0.25 	(obj:2)
_var908_                           0.0357142857142859 	(obj:2)
_var912_                            0.249999999999999 	(obj:1)
